Reproduction of the Original Problem/Instances/S1-5/S1-5-5-3-l.txt
     100       5    0.05
       1       3       1       3       3      15       7       6      12       2       3
       3       1       1       2       1      12      16       0       2      14       3
       1       3       3       2       2       6      14      10       0       0       2
       3       2       1       2       1       2       8       1      12       0       2
       1       1       3       3       3      15      13      10       5       2       2
       2       1       3       2       2      13       0       3      15      15       2
       1       1       1       1       2      15      15       3      14       8       2
       1       2       1       1       2      11       4      14      12      13       3
       3       3       2       2       3      12      11       9      15      12       2
       3       1       2       2       1       4       8       9       7       2       3
       2       3       2       3       1       4       6       0       7       7       2
       2       3       1       1       2       5      16       8       7       7       2
       2       3       1       1       2      11      13       4       5      13       2
       2       2       2       1       3       9      11       1       3       6       2
       2       2       2       2       3      16       6       5      14      11       2
       1       3       1       1       2      11       2       7      15       2       3
       2       1       3       1       2      13      13       6      13       7       3
       1       1       2       2       2       9      10      13       1      11       3
       1       2       1       2       3       3       7      13       6       9       3
       1       3       3       2       2      10       3      14       3      14       3
       2       3       3       1       2       1      10      12      13       1       2
       3       1       1       2       3       6       4      13      14       9       2
       2       1       3       1       3       3       5       3      15       9       2
       1       3       3       2       3       7       5       5       5       3       2
       1       1       3       1       2       3       5       5      14       0       3
       1       1       2       3       2       6       5      12       7      14       2
       1       1       3       1       2      10       5       2       4      14       2
       3       3       1       2       2      13      11      11      10       3       3
       3       2       1       2       2       2       0       5       4       8       2
       2       1       3       3       1       5       1       8      10       7       3
       3       3       3       3       2       6      14      13       4       9       2
       2       3       2       1       1       1      14       1      16       3       2
       2       3       2       2       3      10      14      16       0       6       3
       2       2       1       1       3      16      15       1       8       0       3
       1       1       1       2       3       5       8       4      14       0       3
       1       1       1       2       1      10       8       9      11       4       2
       2       1       2       1       3       9      10      14       7       6       2
       1       3       2       3       3       3       5       8       7       8       3
       3       1       2       2       2       9      11      16       3       1       3
       3       1       2       2       3       9       2       2      13       5       3
       1       1       3       2       1       8      14      10       3      15       2
       1       1       3       2       1       4       9      12       0       0       2
       1       1       3       3       2      15      10       6      12       5       2
       3       2       3       3       2      11       6       9       4      16       2
       2       1       2       3       1       7       3      10       9       9       2
       1       1       1       3       1       7       7       8       6       9       2
       1       3       1       1       1       7       9       9       4       8       2
       3       3       2       1       2      10      15       0      16       1       2
       3       1       2       2       1      12       1       5       4      16       3
       2       3       1       3       1       4      14      14      15      10       2
       3       2       2       1       2      12      12       9       7      12       3
       1       2       2       3       1       6       3      15      11       9       2
       3       1       1       1       2       6      14       9       3       0       2
       3       1       3       2       2       4      13       5       2       0       2
       3       2       3       2       2      12       9       2       2       8       2
       1       1       1       2       3       5       8      15       4       6       2
       1       3       1       3       3       3      14       4       9      13       2
       1       3       2       2       3      16      11      16      15       4       3
       1       1       2       2       2      11       6      10       1       9       3
       2       1       2       2       2       8       2      15      10       8       2
       3       1       3       1       1      11       8      10      11       6       3
       1       1       3       2       1       7      12       1       1       7       3
       2       3       3       2       3       7      16      15       4       6       2
       2       2       2       1       3      15      14      10       6      16       2
       3       2       2       1       1      11       9       7       2       1       2
       2       1       1       3       3       2       6      15       4       8       3
       3       3       3       3       2      13       5       6       8      16       2
       2       1       3       1       1      14       7      14       4       7       3
       3       1       3       3       2       2      16      13      11       4       3
       3       1       2       3       3      15      16       5      14       5       3
       2       3       3       3       1      11      10      13      11       9       2
       1       1       3       2       2      15       9       7       7       3       2
       3       1       2       1       3      11      16      16      15       5       3
       3       1       1       2       2      15      15       3       4       2       3
       3       3       1       1       3      16      11      12       9      15       2
       3       3       1       3       3      15      16       8      16       7       3
       1       1       2       3       1       0       4       6       7      11       2
       2       1       1       1       3      14      11       5      12       8       2
       2       1       3       3       3       4       4       9      12      13       2
       3       3       3       3       2       2       3       2      13      11       3
       1       1       2       2       3      11       2       7       5      16       3
       3       2       3       2       1      16       1      12      15       0       2
       3       1       1       2       3      13       7      15       5       7       3
       3       3       3       3       2       8       4      12      11      16       2
       2       1       2       2       1      11       4      14       5       9       2
       2       2       1       2       3      14       5      14       8       1       2
       1       1       2       2       3       3       7      16       9       5       3
       2       2       3       2       1       4      13       8       8       6       2
       1       2       3       2       2      11      13      13       6       7       3
       3       3       3       3       3       6      16       7       7      10       2
       2       1       3       2       2       1      10       9       7      10       2
       3       2       1       3       2      15       8       6       4      11       2
       2       2       1       2       1       0       8       5       0       3       3
       1       3       3       1       3      16       9       7       6       2       3
       1       1       1       3       3       3       5      11       4      12       3
       3       2       3       1       1       9      11      10       1       0       2
       3       3       2       2       1      11       9       0       4       8       3
       1       1       3       2       2      11      16       3       5      11       2
       1       3       3       1       2      12      11       1       5       4       2
       1       1       3       3       1       2      12      15      14       9       3
      70      90      51      74      78
      96      96     192     192     192
     254     489     299     274     270