Reproduction of the Original Problem/results-log/S1-5/S1-5-5-3-l.log
CPXPARAM_Read_DataCheck                          1
Found incumbent of value 0.000000 after 0.00 sec. (0.02 ticks)
Tried aggregator 1 time.
MIP Presolve modified 1 coefficients.
Reduced MIP has 116 rows, 505 columns, and 2515 nonzeros.
Reduced MIP has 505 binaries, 0 generals, 0 SOSs, and 0 indicators.
Presolve time = 0.00 sec. (1.02 ticks)
Probing time = 0.00 sec. (0.74 ticks)
Tried aggregator 1 time.
Reduced MIP has 116 rows, 505 columns, and 2515 nonzeros.
Reduced MIP has 505 binaries, 0 generals, 0 SOSs, and 0 indicators.
Presolve time = 0.00 sec. (1.22 ticks)
Probing time = 0.00 sec. (0.74 ticks)
Clique table members: 500.
MIP emphasis: balance optimality and feasibility.
MIP search method: dynamic search.
Parallel mode: deterministic, using up to 4 threads.
Root relaxation solution time = 0.00 sec. (1.40 ticks)

        Nodes                                         Cuts/
   Node  Left     Objective  IInf  Best Integer    Best Bound    ItCnt     Gap

*     0+    0                            0.0000     3199.0000              --- 
      0     0     1584.2550     7        0.0000     1584.2550      189     --- 
*     0+    0                          671.0000     1584.2550           136.10%
      0     0     1018.0971   196      671.0000     Cuts: 132      529   51.73%
*     0+    0                          788.0000     1018.0971            29.20%
      0     0      826.4905   267      788.0000     Cuts: 131      860    4.88%
      0     0      798.9845   190      788.0000      Cuts: 49      945    1.39%
*     0+    0                          796.0000      798.9845             0.37%
      0     0        cutoff            796.0000                    949     --- 
Elapsed time = 0.06 sec. (59.68 ticks, tree = 0.01 MB, solutions = 4)

Clique cuts applied:  189
Cover cuts applied:  6
Implied bound cuts applied:  2
Flow cuts applied:  3
Mixed integer rounding cuts applied:  9
Zero-half cuts applied:  1

Root node processing (before b&c):
  Real time             =    0.06 sec. (59.72 ticks)
Parallel b&c, 4 threads:
  Real time             =    0.00 sec. (0.00 ticks)
  Sync time (average)   =    0.00 sec.
  Wait time (average)   =    0.00 sec.
                          ------------
Total (root+branch&cut) =    0.06 sec. (59.72 ticks)
